NAME : local_8
TYPE : ATSP
DIMENSION : 7
EDGE_WEIGHT_TYPE : EXPLICIT
EDGE_WEIGHT_FORMAT : FULL_MATRIX
EDGE_WEIGHT_SECTION
0 10000000 698 143 10000000 753 0 
0 0 815 10000000 1027 10000000 10000000 
0 807 0 602 10000000 10000000 698 
0 10000000 602 0 10000000 873 143 
0 1008 10000000 10000000 0 654 10000000 
0 10000000 10000000 873 654 0 753 
0 10000000 10000000 10000000 10000000 10000000 0 
EOF